10J3M/DAT/10J3MULX-6.dat
10 3
16.5613 4.0696
6.6154 2.572
6.3373 2.5174
24.2209 4.9215
12.5583 3.5438
21.7388 4.6625
40.2304 6.3427
28.9982 5.385
31.0171 5.5693
39.0044 6.2454
15.2764