10J3M/SOL/10J3MULX-6.sol
solution status: optimal solution found
objective value:                     67.7512666666667
x#1#1                               0.975949757766167 	(obj:0)
x#1#2                              0.0240502422338327 	(obj:0)
x#2#3                                               1 	(obj:0)
x#3#2                                               1 	(obj:0)
x#4#1                               0.771901642088689 	(obj:0)
x#4#3                               0.228098357911311 	(obj:0)
x#5#2                               0.300744608656299 	(obj:0)
x#5#3                               0.699255391343701 	(obj:0)
x#6#3                                               1 	(obj:0)
x#7#1                               0.363052253981145 	(obj:0)
x#7#2                               0.636947746018855 	(obj:0)
x#8#1                                               1 	(obj:0)
x#9#3                                               1 	(obj:0)
x#10#2                                              1 	(obj:0)
z                                    67.7512666666667 	(obj:1)
